%mem=20GB
%nprocshared=16
%chk=elchk
#p HF/6-31G* SCF=Tight Pop=MK IOp(6/33=2,6/41=10,6/42=17)

calculo cargas

0 1





